words_hard_train/3726.qaiger
aag 84 16 0 1 68
2
4
8
12
16
20
24
32
44
46
50
54
58
72
98
142
169
6 3 5
10 6 9
14 10 13
18 14 17
22 18 21
26 22 25
28 23 24
30 27 29
34 30 32
36 19 20
38 37 23
40 11 12
42 41 15
48 45 47
52 48 51
56 52 55
60 57 58
62 56 59
64 61 63
66 43 65
68 15 16
70 69 19
74 63 72
76 62 73
78 75 77
80 71 79
82 67 81
84 2 4
86 85 7
88 49 50
90 89 53
92 86 90
94 3 46
96 95 49
100 98 44
102 2 47
104 100 103
106 96 105
108 93 107
110 87 91
112 109 111
114 7 8
116 115 11
118 53 54
120 119 57
122 117 121
124 112 123
126 116 120
128 125 127
130 42 64
132 128 131
134 82 133
136 70 78
138 135 137
140 38 139
144 76 143
146 140 144
148 34 147
150 141 77
152 150 142
154 149 153
156 39 138
158 156 145
160 154 159
162 31 33
164 160 163
166 147 162
168 165 167
i0 1 x2[1]
i1 1 x2[2]
i2 1 x2[3]
i3 1 x2[4]
i4 1 x2[5]
i5 1 x2[6]
i6 1 x2[7]
i7 2 y1[7]
i8 2 y1[0]
i9 2 y1[1]
i10 2 y1[2]
i11 2 y1[3]
i12 2 y1[4]
i13 2 y1[5]
i14 1 x2[0]
i15 2 y1[6]
o0 bv[0]
c
simplified
  <=
    add
      reverse
        1
      2 y1
    subtract
      1
      1 x2
