words_hard_train/3726.qaiger.qdimacs
p cnf 84 205
a 1 2 4 6 8 10 12 49 0
e 3 5 7 9 11 13 14 15 16 17 18 19 20 21 22 23 24 25 26 27 28 29 30 31 32 33 34 35 36 37 38 39 40 41 42 43 44 45 46 47 48 50 51 52 53 54 55 56 57 58 59 60 61 62 63 64 65 66 67 68 69 70 71 72 73 74 75 76 77 78 79 80 81 82 83 84 0
1 2 3 0
-1 -3 0
-2 -3 0
-3 4 5 0
3 -5 0
-4 -5 0
-5 6 7 0
5 -7 0
-6 -7 0
-7 8 9 0
7 -9 0
-8 -9 0
-9 10 11 0
9 -11 0
-10 -11 0
-11 12 13 0
11 -13 0
-12 -13 0
11 -12 14 0
-11 -14 0
12 -14 0
13 14 15 0
-13 -15 0
-14 -15 0
-15 -16 17 0
15 -17 0
16 -17 0
9 -10 18 0
-9 -18 0
10 -18 0
18 11 19 0
-18 -19 0
-11 -19 0
5 -6 20 0
-5 -20 0
6 -20 0
20 7 21 0
-20 -21 0
-7 -21 0
22 23 24 0
-22 -24 0
-23 -24 0
-24 25 26 0
24 -26 0
-25 -26 0
-26 27 28 0
26 -28 0
-27 -28 0
28 -29 30 0
-28 -30 0
29 -30 0
-28 29 31 0
28 -31 0
-29 -31 0
30 31 32 0
-30 -32 0
-31 -32 0
21 32 33 0
-21 -33 0
-32 -33 0
7 -8 34 0
-7 -34 0
8 -34 0
34 9 35 0
-34 -35 0
-9 -35 0
31 -36 37 0
-31 -37 0
36 -37 0
-31 36 38 0
31 -38 0
-36 -38 0
37 38 39 0
-37 -39 0
-38 -39 0
35 39 40 0
-35 -40 0
-39 -40 0
33 40 41 0
-33 -41 0
-40 -41 0
-1 -2 42 0
1 -42 0
2 -42 0
42 3 43 0
-42 -43 0
-3 -43 0
24 -25 44 0
-24 -44 0
25 -44 0
44 26 45 0
-44 -45 0
-26 -45 0
-43 -45 46 0
43 -46 0
45 -46 0
1 -23 47 0
-1 -47 0
23 -47 0
47 24 48 0
-47 -48 0
-24 -48 0
-49 -22 50 0
49 -50 0
22 -50 0
-1 23 51 0
1 -51 0
-23 -51 0
-50 51 52 0
50 -52 0
-51 -52 0
-48 52 53 0
48 -53 0
-52 -53 0
46 53 54 0
-46 -54 0
-53 -54 0
43 45 55 0
-43 -55 0
-45 -55 0
54 55 56 0
-54 -56 0
-55 -56 0
3 -4 57 0
-3 -57 0
4 -57 0
57 5 58 0
-57 -58 0
-5 -58 0
26 -27 59 0
-26 -59 0
27 -59 0
59 28 60 0
-59 -60 0
-28 -60 0
58 60 61 0
-58 -61 0
-60 -61 0
-56 61 62 0
56 -62 0
-61 -62 0
-58 -60 63 0
58 -63 0
60 -63 0
62 63 64 0
-62 -64 0
-63 -64 0
-21 -32 65 0
21 -65 0
32 -65 0
-64 65 66 0
64 -66 0
-65 -66 0
-41 66 67 0
41 -67 0
-66 -67 0
-35 -39 68 0
35 -68 0
39 -68 0
67 68 69 0
-67 -69 0
-68 -69 0
-19 69 70 0
19 -70 0
-69 -70 0
-38 71 72 0
38 -72 0
-71 -72 0
-70 -72 73 0
70 -73 0
72 -73 0
-17 73 74 0
17 -74 0
-73 -74 0
70 38 75 0
-70 -75 0
-38 -75 0
-75 -71 76 0
75 -76 0
71 -76 0
74 76 77 0
-74 -77 0
-76 -77 0
19 -69 78 0
-19 -78 0
69 -78 0
-78 72 79 0
78 -79 0
-72 -79 0
-77 79 80 0
77 -80 0
-79 -80 0
15 16 81 0
-15 -81 0
-16 -81 0
-80 81 82 0
80 -82 0
-81 -82 0
73 -81 83 0
-73 -83 0
81 -83 0
82 83 84 0
-82 -84 0
-83 -84 0
-84 0
